
******************************************************************************
This program contains Ipopt, a library for large-scale nonlinear optimization.
 Ipopt is released as open source code under the Eclipse Public License (EPL).
         For more information visit http://projects.coin-or.org/Ipopt

This version of Ipopt was compiled from source code available at
    https://github.com/IDAES/Ipopt as part of the Institute for the Design of
    Advanced Energy Systems Process Systems Engineering Framework (IDAES PSE
    Framework) Copyright (c) 2018-2019. See https://github.com/IDAES/idaes-pse.

This version of Ipopt was compiled using HSL, a collection of Fortran codes
    for large-scale scientific computation.  All technical papers, sales and
    publicity material resulting from use of the HSL codes within IPOPT must
    contain the following acknowledgement:
        HSL, a collection of Fortran codes for large-scale scientific
        computation. See http://www.hsl.rl.ac.uk.
******************************************************************************

This is Ipopt version 3.13.2, running with linear solver ma27.

Number of nonzeros in equality constraint Jacobian...:     1550
Number of nonzeros in inequality constraint Jacobian.:        0
Number of nonzeros in Lagrangian Hessian.............:     2781

Total number of variables............................:      540
                     variables with only lower bounds:      108
                variables with lower and upper bounds:      378
                     variables with only upper bounds:        0
Total number of equality constraints.................:      532
Total number of inequality constraints...............:        0
        inequality constraints with only lower bounds:        0
   inequality constraints with lower and upper bounds:        0
        inequality constraints with only upper bounds:        0

iter    objective    inf_pr   inf_du lg(mu)  ||d||  lg(rg) alpha_du alpha_pr  ls
   0  0.0000000e+00 4.07e+00 1.41e-13  -1.0 0.00e+00    -  0.00e+00 0.00e+00   0
   1  8.1354580e+01 4.00e+00 5.42e+05  -1.0 2.66e+05    -  2.15e-01 2.84e-01h  1
   2  1.1638759e+02 9.03e+00 5.63e+06  -1.0 6.83e+05  -4.0 5.92e-03 4.29e-02h  3
   3  1.9336236e+02 8.67e+00 5.40e+06  -1.0 1.15e+06  -4.5 3.87e-02 3.97e-02h  4
   4  2.3045179e+02 8.55e+00 5.33e+06  -1.0 1.58e+06  -4.1 1.04e-01 1.34e-02h  5
   5  2.4890753e+02 8.47e+00 6.93e+06  -1.0 3.43e+06  -4.5 5.58e-03 9.78e-03h  3
   6  2.3361868e+02 8.42e+00 1.00e+07  -1.0 2.55e+06  -4.1 3.48e-02 6.17e-03f  4
   7  2.3625364e+02 8.28e+00 1.37e+07  -1.0 6.41e+05  -4.6 1.41e-01 1.57e-02h  4
   8  2.5838944e+02 8.07e+00 1.51e+07  -1.0 3.04e+05  -4.2 2.75e-01 2.53e-02h  4
   9  6.2177589e+02 7.43e+00 1.32e+07  -1.0 6.32e+05  -4.6 1.31e-01 7.92e-02H  1
iter    objective    inf_pr   inf_du lg(mu)  ||d||  lg(rg) alpha_du alpha_pr  ls
  10  6.2114048e+02 7.41e+00 1.32e+07  -1.0 6.80e+05  -4.2 3.71e-01 3.18e-03H  1
  11  5.7261811e+02 7.28e+00 1.47e+07  -1.0 3.96e+06  -4.7 1.47e-01 1.74e-02f  3
  12  9.1752327e+02 6.02e+00 3.76e+07  -1.0 8.78e+05  -4.3 4.07e-01 2.36e-01h  1
  13  9.1748370e+02 6.02e+00 3.76e+07  -1.0 2.01e+06  -2.0 1.31e-03 1.10e-05h  1
  14  9.1044894e+02 6.00e+00 1.88e+07  -1.0 2.49e+06  -2.5 3.23e-03 2.35e-03h  1
  15  9.2218467e+02 5.95e+00 2.14e+08  -1.0 4.01e+06  -3.0 6.36e-03 8.91e-03h  1
  16  3.3707684e+03 5.52e+00 1.25e+10  -1.0 6.00e+06  -3.5 1.30e-02 7.25e-02h  1
  17  3.3477474e+03 5.48e+00 1.24e+10  -1.0 4.59e+05  -2.1 1.54e-03 7.94e-03f  1
  18  2.2437351e+03 5.13e+00 1.12e+10  -1.0 4.15e+06  -2.6 6.96e-03 6.39e-02f  2
  19  2.1904247e+03 5.07e+00 1.11e+10  -1.0 9.20e+05  -2.2 1.17e-01 9.99e-03f  1
iter    objective    inf_pr   inf_du lg(mu)  ||d||  lg(rg) alpha_du alpha_pr  ls
  20  2.0082341e+03 5.52e+00 6.84e+09  -1.0 6.64e+05  -1.8 1.92e-01 9.94e-02f  3
  21  2.0447882e+03 5.33e+00 6.67e+09  -1.0 1.42e+06  -2.2 3.21e-01 3.46e-02h  4
  22  2.0611810e+03 5.29e+00 6.53e+09  -1.0 7.49e+05  -1.8 4.25e-01 6.92e-03h  5
  23  2.1137318e+03 5.26e+00 5.79e+09  -1.0 3.08e+06  -2.3 2.52e-01 6.71e-03h  4
  24  2.3748526e+03 5.22e+00 2.14e+10  -1.0 7.08e+06  -1.9 1.07e-01 7.42e-03h  2
  25  6.1328375e+03 4.47e+00 2.83e+12  -1.0 2.56e+06  -1.4 2.17e-02 1.44e-01h  2
MA27BD returned iflag=-4 and requires more memory.
 Increase liw from 30315 to 60630 and la from 32375 to 66926 and factorize again.
  26  1.3840307e+04 4.60e+00 2.05e+12  -1.0 8.87e+05  -0.1 2.50e-02 4.95e-01h  2
  27  1.3840810e+04 4.59e+00 2.05e+12  -1.0 2.06e+06   0.3 1.71e-01 4.48e-04h  1
  28  1.4582236e+04 4.19e+00 2.50e+12  -1.0 2.21e+06   0.8 2.89e-02 8.74e-02h  4
  29  1.8799205e+04 3.46e+00 1.38e+13  -1.0 1.48e+06   0.3 3.33e-04 3.18e-01h  2
iter    objective    inf_pr   inf_du lg(mu)  ||d||  lg(rg) alpha_du alpha_pr  ls
  30  1.9340024e+04 3.36e+00 1.18e+13  -1.0 4.80e+06   0.7 2.63e-07 3.07e-02h  4
  31  1.9209679e+04 3.33e+00 1.17e+13  -1.0 3.38e+06   0.2 2.77e-03 7.76e-03f  6
  32  1.9145907e+04 3.19e+00 1.09e+13  -1.0 2.86e+06   0.7 1.02e-02 4.25e-02f  4
  33  1.8422134e+04 4.30e+00 1.04e+13  -1.0 5.07e+06   0.2 1.43e-01 6.84e-02f  2
  34  1.8481422e+04 4.23e+00 1.02e+13  -1.0 2.07e+06   0.6 1.80e-01 1.61e-02h  5
  35  1.8821856e+04 4.00e+00 9.57e+12  -1.0 1.01e+06   1.0 3.03e-01 5.42e-02h  4
  36  2.0799024e+04 3.69e+00 9.27e+12  -1.0 1.37e+06   0.5 3.63e-01 1.62e-01h  1
  37  2.0813810e+04 3.68e+00 9.25e+12  -1.0 4.06e+05   1.0 3.60e-01 2.08e-03h  1
  38r 2.0813810e+04 3.68e+00 9.99e+02   0.6 0.00e+00   0.5 0.00e+00 2.75e-07R  4
  39r 2.0813833e+04 3.00e+00 9.93e+02   0.6 5.37e+03    -  1.36e-02 1.77e-03f  1
iter    objective    inf_pr   inf_du lg(mu)  ||d||  lg(rg) alpha_du alpha_pr  ls
  40  2.0653526e+04 2.98e+00 2.18e+02  -1.0 1.22e+06    -  2.36e-01 7.05e-03f  6
  41  1.9909604e+04 3.63e+00 4.14e+02  -1.0 1.18e+06    -  4.97e-01 5.81e-02f  4
  42  1.9108915e+04 3.91e+00 6.85e+02  -1.0 1.11e+06    -  4.88e-01 6.90e-02f  4
  43  1.7242390e+04 3.45e+00 8.40e+02  -1.0 1.01e+06    -  7.05e-01 1.57e-01f  3
  44  1.5946333e+04 6.63e+00 2.30e+03  -1.0 8.91e+05    -  5.14e-01 2.50e-01f  2
  45  1.5450736e+04 5.86e+00 2.19e+03  -1.0 9.14e+05    -  4.96e-01 1.17e-01f  3
  46  1.5202134e+04 4.38e+00 1.56e+03  -1.0 5.16e+05    -  2.16e-01 2.52e-01f  1
  47  1.5190707e+04 4.36e+00 1.55e+03  -1.0 4.73e+05    -  1.86e-01 3.28e-03f  1
  48  1.4725324e+04 3.65e+00 1.08e+03  -1.0 8.08e+05    -  5.32e-02 1.63e-01f  3
  49  1.4829874e+04 3.52e+00 1.56e+03  -1.0 6.68e+05    -  9.90e-01 3.69e-02h  1
iter    objective    inf_pr   inf_du lg(mu)  ||d||  lg(rg) alpha_du alpha_pr  ls
  50  1.5277575e+04 3.22e+00 1.49e+03  -1.0 3.99e+05    -  2.06e-01 8.50e-02h  3
  51  1.5523014e+04 3.06e+00 1.32e+03  -1.0 4.27e+05    -  1.91e-01 1.50e-01h  3
  52  1.5588109e+04 3.02e+00 1.42e+03  -1.0 3.88e+05    -  1.58e-01 1.19e-02h  5
  53  1.5966122e+04 2.82e+00 1.83e+03  -1.0 3.65e+05    -  6.94e-01 6.54e-02h  3
  54  1.5969523e+04 2.81e+00 1.90e+03  -1.0 1.48e+06    -  1.05e-01 3.84e-03h  6
  55  1.5974329e+04 2.81e+00 1.92e+03  -1.0 5.56e+06    -  2.29e-02 1.11e-04H  1
  56  1.5973359e+04 2.79e+00 2.04e+03  -1.0 1.95e+06    -  1.52e-01 6.55e-03f  5
  57r 1.5973359e+04 2.79e+00 1.00e+03   0.4 0.00e+00   0.0 0.00e+00 3.44e-07R  3
  58r 1.5973349e+04 2.01e+00 9.99e+02   0.4 3.05e+03    -  2.95e-03 3.96e-03f  1
  59  1.5973762e+04 2.01e+00 2.14e+02  -1.0 8.62e+04    -  1.32e-01 6.13e-04h  1
iter    objective    inf_pr   inf_du lg(mu)  ||d||  lg(rg) alpha_du alpha_pr  ls
  60  1.5973722e+04 2.00e+00 4.38e+02  -1.0 1.77e+05    -  7.67e-02 1.88e-03h  2
  61  1.6037615e+04 1.93e+00 2.10e+03  -1.0 1.63e+05    -  3.75e-01 8.25e-02h  2
  62  1.6294153e+04 1.89e+00 5.74e+03  -1.0 6.20e+05    -  5.19e-01 3.14e-02h  1
  63  1.6797621e+04 2.18e+00 2.49e+04  -1.0 8.03e+05    -  5.16e-01 7.17e-02h  4
  64  1.7111405e+04 2.08e+00 2.38e+04  -1.0 1.08e+06    -  3.27e-01 4.32e-02h  5
  65  1.5251849e+04 3.10e+00 8.07e+05  -1.0 4.86e+05    -  3.40e-01 4.44e-01f  2
  66  1.5251875e+04 3.10e+00 8.07e+05  -1.0 1.96e+05  -0.5 1.13e-05 2.13e-05h  1
  67r 1.5251875e+04 3.10e+00 1.00e+03   0.5 0.00e+00  -0.9 0.00e+00 3.03e-07R  3
  68r 1.5251858e+04 1.56e+00 1.00e+03   0.5 4.18e+03    -  5.27e-03 3.65e-03f  1
  69  1.5252809e+04 1.56e+00 1.19e+02  -1.0 6.75e+04    -  7.90e-02 2.09e-03h  1
iter    objective    inf_pr   inf_du lg(mu)  ||d||  lg(rg) alpha_du alpha_pr  ls
  70  1.5366105e+04 2.00e+00 2.64e+03  -1.0 6.78e+04    -  2.48e-02 2.47e-01h  3
  71  1.5382182e+04 1.99e+00 2.76e+03  -1.0 4.55e+05    -  3.90e-01 5.72e-03h  1
  72  1.5401239e+04 1.95e+00 3.30e+03  -1.0 5.06e+05    -  3.03e-01 1.82e-02h  6
  73  1.5408192e+04 1.95e+00 3.39e+03  -1.0 1.27e+06    -  4.45e-02 6.81e-04h  7
  74  1.5558458e+04 1.92e+00 4.24e+03  -1.0 1.10e+06    -  1.99e-01 1.67e-02h  5
  75  1.5776818e+04 1.88e+00 5.81e+03  -1.0 1.17e+06    -  3.52e-01 2.29e-02h  5
  76  1.5899907e+04 1.86e+00 6.40e+03  -1.0 2.03e+06    -  2.11e-01 1.01e-02h  7
  77  1.5927932e+04 1.85e+00 6.74e+03  -1.0 2.90e+06    -  1.62e-01 1.93e-03h 10
  78  1.5942467e+04 1.85e+00 7.09e+03  -1.0 2.90e+06    -  1.66e-01 9.67e-04h 11
  79  1.5955216e+04 1.85e+00 7.57e+03  -1.0 2.80e+06    -  2.29e-01 8.32e-04h 11
iter    objective    inf_pr   inf_du lg(mu)  ||d||  lg(rg) alpha_du alpha_pr  ls
  80  1.7753033e+04 1.90e+00 2.37e+04  -1.0 2.59e+06    -  2.76e-01 8.87e-02h  4
  81  2.4016622e+04 1.59e+00 8.59e+04  -1.0 2.39e+06    -  3.38e-01 1.63e-01h  3
  82  5.5618076e+04 2.23e+00 4.53e+05  -1.0 2.31e+06    -  2.27e-02 4.52e-01w  1
  83  5.5895468e+04 2.18e+00 4.46e+05  -1.0 1.09e+06    -  6.94e-01 2.37e-02w  1
  84  6.6874068e+04 1.58e+00 3.09e+05  -1.0 1.21e+06    -  7.51e-02 3.55e-01w  1
  85  2.9839187e+04 1.42e+00 9.86e+04  -1.0 2.68e+06    -  2.27e-02 1.13e-01h  2
  86  3.1261813e+04 1.33e+00 9.01e+04  -1.0 1.74e+06    -  3.30e-03 6.86e-02h  3
  87  3.1541855e+04 1.31e+00 8.43e+04  -1.0 1.63e+06    -  3.28e-03 5.45e-02h  3
  88  3.1818039e+04 1.23e+00 7.90e+04  -1.0 1.14e+06    -  1.28e-01 5.83e-02h  3
  89  3.2183480e+04 1.16e+00 7.43e+04  -1.0 9.60e+05    -  2.06e-01 5.99e-02h  3
iter    objective    inf_pr   inf_du lg(mu)  ||d||  lg(rg) alpha_du alpha_pr  ls
  90  3.2003680e+04 1.10e+00 7.43e+04  -1.0 1.74e+06    -  4.76e-01 5.25e-02f  3
  91  3.2004059e+04 1.10e+00 1.31e+05  -1.0 3.70e+05  -1.4 1.74e-02 5.18e-05h  2
  92  3.2012677e+04 1.10e+00 3.61e+05  -1.0 3.52e+05  -1.9 9.70e-02 1.12e-03h  7
  93  3.2149107e+04 1.08e+00 1.29e+07  -1.0 4.97e+05  -2.4 1.80e-02 1.65e-02h  5
  94  3.2706616e+04 1.01e+00 8.01e+07  -1.0 5.04e+05  -2.8 5.14e-04 6.62e-02h  3
  95  3.3284246e+04 9.84e-01 6.98e+07  -1.0 2.45e+06  -3.3 1.20e-04 2.64e-02w  1
  96  3.3287992e+04 9.84e-01 6.98e+07  -1.0 4.74e+06  -3.8 1.86e-02 1.19e-04w  1
  97  3.3287997e+04 9.84e-01 6.98e+07  -1.0 1.07e+06  -4.3 1.49e-01 1.93e-05w  1
  98  3.2776494e+04 1.01e+00 7.98e+07  -1.0 9.17e+05  -3.8 1.20e-04 3.30e-03h  3
  99  3.3242509e+04 9.61e-01 1.54e+08  -1.0 6.04e+05  -2.5 2.69e-02 4.60e-02h  3
iter    objective    inf_pr   inf_du lg(mu)  ||d||  lg(rg) alpha_du alpha_pr  ls
 100  3.3330965e+04 9.56e-01 1.52e+08  -1.0 1.79e+06  -3.0 1.63e-02 5.41e-03h  3
 101  3.3633846e+04 9.27e-01 1.63e+08  -1.0 7.09e+05  -2.6 1.41e-01 2.95e-02h  2
 102  3.3932474e+04 8.99e-01 2.11e+08  -1.0 6.08e+05  -2.1 1.49e-01 3.11e-02h  1
 103  3.3933899e+04 8.98e-01 2.11e+08  -1.0 8.97e+05  -2.6 2.05e-01 1.37e-04h  1
 104  3.3941711e+04 8.97e-01 2.11e+08  -1.0 5.27e+05  -3.1 1.64e-02 1.42e-03h  1
 105  3.3950952e+04 8.95e-01 2.10e+08  -1.0 1.00e+06  -3.6 8.95e-05 2.67e-03h  1
 106  3.3956768e+04 8.94e-01 2.10e+08  -1.0 5.64e+05  -3.1 1.21e-03 1.13e-03h  1
 107  3.4046342e+04 8.50e-01 1.88e+08  -1.0 7.58e+05  -3.6 2.05e-03 4.93e-02h  3
 108  3.4065455e+04 8.46e-01 1.88e+08  -1.0 5.38e+05  -3.2 4.15e-01 4.05e-03h  1
 109  3.4581561e+04 7.09e-01 7.69e+07  -1.0 8.44e+05  -3.7 1.03e-01 1.62e-01H  1
iter    objective    inf_pr   inf_du lg(mu)  ||d||  lg(rg) alpha_du alpha_pr  ls
 110  3.4590420e+04 7.09e-01 7.69e+07  -1.0 1.05e+06  -3.3 9.77e-03 7.12e-04h  2
 111  3.4744329e+04 7.03e-01 8.33e+07  -1.0 5.16e+06  -3.7 2.36e-03 8.38e-03h  3
 112  3.4805055e+04 7.00e-01 8.37e+07  -1.0 1.56e+06  -3.3 2.63e-02 3.66e-03h  2
 113  3.4811902e+04 7.00e-01 8.37e+07  -1.0 8.89e+06  -3.8 1.51e-02 4.25e-04h  1
 114  3.5018595e+04 6.92e-01 9.11e+07  -1.0 1.77e+06  -3.4 1.25e-02 1.16e-02h  2
 115  3.5019268e+04 6.92e-01 9.11e+07  -1.0 1.73e+07  -3.8 1.50e-02 9.78e-05h  1
 116  3.5018157e+04 6.92e-01 9.14e+07  -1.0 1.36e+06  -1.6 3.49e-02 3.49e-04f  2
 117  3.5020031e+04 6.92e-01 9.14e+07  -1.0 1.09e+06  -2.1 1.65e-01 1.78e-04h  4
 118  3.5156294e+04 6.73e-01 1.03e+08  -1.0 3.68e+05  -2.6 8.91e-03 2.65e-02h  4
 119  3.5983747e+04 6.41e-01 2.72e+08  -1.0 1.39e+06  -3.0 1.09e-03 4.88e-02h  1
iter    objective    inf_pr   inf_du lg(mu)  ||d||  lg(rg) alpha_du alpha_pr  ls
 120  3.5988510e+04 6.40e-01 2.72e+08  -1.0 2.41e+06  -3.5 2.04e-02 3.15e-04h  1
 121r 3.5988510e+04 6.40e-01 1.00e+03  -0.2 0.00e+00  -3.1 0.00e+00 2.91e-07R  6
 122r 3.5988483e+04 5.04e-01 1.04e+03  -0.2 3.35e+03    -  4.14e-03 2.18e-03f  1
 123  3.5988649e+04 5.04e-01 1.89e+01  -1.0 4.32e+05    -  1.20e-04 9.43e-06H  1
 124  3.6001041e+04 5.02e-01 4.48e+01  -1.0 3.36e+05    -  3.02e-04 2.83e-03h  6
 125  3.6082359e+04 4.93e-01 1.25e+03  -1.0 3.46e+05    -  1.44e-03 1.82e-02h  3
 126  3.6136633e+04 4.87e-01 5.94e+03  -1.0 3.27e+05    -  2.75e-02 1.22e-02h  3
 127  3.6217807e+04 5.07e-01 1.78e+04  -1.0 3.76e+05    -  1.48e-02 1.52e-02h  1
 128  3.6837602e+04 4.76e-01 4.76e+04  -1.0 7.67e+05    -  4.09e-03 6.15e-02h  1
 129  3.6838888e+04 4.76e-01 4.88e+04  -1.0 1.78e+05  -1.8 1.46e-03 5.67e-04h  1
iter    objective    inf_pr   inf_du lg(mu)  ||d||  lg(rg) alpha_du alpha_pr  ls
 130r 3.6838888e+04 4.76e-01 9.99e+02  -0.3 0.00e+00  -2.2 0.00e+00 3.78e-07R  6
 131r 3.6838896e+04 3.36e-01 9.95e+02  -0.3 2.02e+03    -  4.95e-04 4.79e-03f  1
 132  3.6841602e+04 3.37e-01 1.43e+02  -1.0 3.64e+05    -  2.77e-02 4.84e-04h  6
 133  3.6860726e+04 3.43e-01 4.20e+02  -1.0 4.02e+05    -  5.25e-02 3.23e-03h  2
 134  3.6864354e+04 3.43e-01 2.13e+03  -1.0 4.31e+05    -  3.30e-01 4.25e-04h  5
 135  3.6864637e+04 3.43e-01 4.74e+03  -1.0 5.46e+05    -  9.47e-02 2.72e-05h 10
 136  3.6898104e+04 3.52e-01 4.20e+03  -1.0 1.45e+06    -  2.39e-03 2.39e-03s 14
 137  3.6898260e+04 3.52e-01 5.36e+03  -1.0 1.56e+05  -2.7 1.33e-04 1.33e-04s 14
 138  3.6913150e+04 3.53e-01 5.34e+03  -1.0 2.33e+06    -  3.24e-04 3.24e-04s 14
 139  3.6918322e+04 3.52e-01 4.96e+03  -1.0 1.57e+06    -  1.91e-04 1.91e-04s 14
iter    objective    inf_pr   inf_du lg(mu)  ||d||  lg(rg) alpha_du alpha_pr  ls
 140  3.6989953e+04 3.51e-01 4.34e+03  -1.0 1.84e+06    -  2.87e-03 2.87e-03s 14
 141  3.7103495e+04 3.49e-01 4.43e+03  -1.0 1.60e+06    -  5.05e-03 5.05e-03s 14
 142r 3.7103495e+04 3.49e-01 1.00e+03  -0.5 0.00e+00    -  0.00e+00 0.00e+00R  1
 143r 3.7103554e+04 3.64e-01 9.99e+02  -0.5 2.56e+03    -  4.97e-03 2.97e-03f  1
 144r 3.7103664e+04 3.26e-01 9.94e+02  -0.5 2.16e+03    -  4.71e-03 4.73e-03f  1
 145r 3.7103704e+04 3.13e-01 9.90e+02  -0.5 1.43e+03    -  1.99e-02 3.53e-03f  1
 146  3.7114155e+04 3.09e-01 6.19e+02  -1.0 3.15e+05    -  1.41e-01 1.72e-03h  7
 147  3.7114348e+04 2.88e-01 1.52e+03  -1.0 4.26e+05    -  2.03e-01 2.35e-05h 12
 148  3.8725275e+04 4.03e+01 1.71e+05  -1.0 4.99e+05    -  1.67e-01 1.67e-01s 20
 149r 3.8725275e+04 4.03e+01 1.00e+03   1.6 0.00e+00    -  0.00e+00 0.00e+00R  1
iter    objective    inf_pr   inf_du lg(mu)  ||d||  lg(rg) alpha_du alpha_pr  ls
 150r 3.8725275e+04 2.17e+01 4.08e+10   1.6 2.24e+04    -  8.87e-03 8.32e-04f  1
 151r 3.8725275e+04 2.17e+01 1.20e+17   1.6 1.00e+01   8.4 1.91e-04 2.01e-03f  1
WARNING: Problem in step computation; switching to emergency mode.
 152r 3.8725275e+04 2.17e+01 1.20e+17   1.6 1.00e+01  19.4 0.00e+00 0.00e+00R  1
 153r 3.8725275e+04 2.17e+01 4.31e+07   1.6 6.95e-15  19.8 9.90e-01 1.00e+00f  1
 154r 3.8725275e+04 2.17e+01 3.30e+06   1.6 1.46e-13  19.4 9.90e-01 1.00e+00h  1
 155r 3.8725275e+04 2.17e+01 4.70e+05   1.6 6.23e-14  18.9 9.91e-01 1.00e+00h  1
 156r 3.8725275e+04 2.17e+01 1.34e+07   1.6 5.35e-12  18.4 1.00e+00 1.00e+00h  1
 157r 3.8725275e+04 2.17e+01 2.25e+09   1.6 2.68e-09  17.9 1.00e+00 1.00e+00h  1
 158r 3.8725275e+04 2.17e+01 4.24e+08   1.6 1.52e-09  17.4 1.00e+00 1.00e+00h  1
 159r 3.8725275e+04 2.17e+01 3.51e+08   1.6 3.77e-09  17.0 1.00e+00 1.00e+00h  1
iter    objective    inf_pr   inf_du lg(mu)  ||d||  lg(rg) alpha_du alpha_pr  ls
 160r 3.8725275e+04 2.17e+01 7.25e+07   1.6 2.34e-09  16.5 1.00e+00 1.00e+00h  1
 161r 3.8725275e+04 2.17e+01 3.40e+07   1.6 3.29e-09  16.0 1.00e+00 1.00e+00f  1
 162r 3.8725275e+04 2.17e+01 2.30e+06   1.6 6.67e-10  15.5 1.00e+00 1.00e+00f  1
 163r 3.8725275e+04 2.17e+01 3.71e+06   1.6 3.22e-09  15.1 1.00e+00 1.00e+00f  1
 164r 3.8725275e+04 2.17e+01 6.33e+05   1.6 1.65e-09  14.6 1.00e+00 1.00e+00f  1
 165r 3.8725275e+04 2.17e+01 4.71e+05   1.6 3.69e-09  14.1 1.00e+00 1.00e+00f  1
 166r 3.8725275e+04 2.17e+01 4.71e+05   1.6 1.11e-08  13.6 1.00e+00 1.00e+00f  1
 167r 3.8725275e+04 2.17e+01 4.71e+05   1.6 3.32e-08  13.2 1.00e+00 1.00e+00f  1
 168r 3.8725275e+04 2.17e+01 4.70e+05   1.6 9.94e-08  12.7 1.00e+00 1.00e+00f  1
 169r 3.8725275e+04 2.17e+01 4.68e+05   1.6 2.97e-07  12.2 1.00e+00 1.00e+00f  1
iter    objective    inf_pr   inf_du lg(mu)  ||d||  lg(rg) alpha_du alpha_pr  ls
 170r 3.8725275e+04 2.17e+01 4.61e+05   1.6 8.76e-07  11.7 1.00e+00 1.00e+00f  1
 171r 3.8725275e+04 2.17e+01 4.41e+05   1.6 2.52e-06  11.2 1.00e+00 1.00e+00f  1
 172r 3.8725275e+04 2.17e+01 1.02e+06   1.6 6.73e-06  10.8 1.00e+00 1.00e+00f  1
 173r 3.8725275e+04 2.17e+01 2.26e+09   1.6 5.08e+00  10.3 3.93e-03 2.29e-02h  1
 174r 3.8725275e+04 2.17e+01 2.27e+09   1.6 4.29e+00   9.8 3.65e-02 9.06e-05h  2
 175r 3.8725275e+04 2.17e+01 2.83e+09   1.6 7.48e+00   9.3 1.00e+00 3.37e-05h  2
 176r 3.8725275e+04 2.17e+01 2.87e+09   1.6 4.78e+00   9.8 2.90e-02 2.28e-02h  4
 177r 3.8725275e+04 2.17e+01 4.99e+13   1.6 1.24e+01   9.3 1.73e-01 3.86e-02H  1
 178r 3.8725275e+04 2.17e+01 4.15e+13   1.6 4.87e+00   9.7 5.62e-04 5.78e-02f  2
 179r 3.8725275e+04 2.17e+01 3.50e+13   1.6 4.11e+00  10.1 1.63e-01 2.20e-02h  2
iter    objective    inf_pr   inf_du lg(mu)  ||d||  lg(rg) alpha_du alpha_pr  ls
 180r 3.8725275e+04 2.17e+01 3.65e+13   1.6 1.01e+01   9.7 2.89e-02 4.47e-03h  5
 181r 3.8725275e+04 2.17e+01 3.63e+20   1.6 2.06e-01  10.5 1.00e+00 5.00e-01f  2
Scaling factors are invalid - setting them all to 1.
Scaling factors are invalid - setting them all to 1.
Scaling factors are invalid - setting them all to 1.
Scaling factors are invalid - setting them all to 1.
Scaling factors are invalid - setting them all to 1.
Scaling factors are invalid - setting them all to 1.
Scaling factors are invalid - setting them all to 1.
Scaling factors are invalid - setting them all to 1.
Scaling factors are invalid - setting them all to 1.
Scaling factors are invalid - setting them all to 1.
Scaling factors are invalid - setting them all to 1.
Scaling factors are invalid - setting them all to 1.
Scaling factors are invalid - setting them all to 1.
Scaling factors are invalid - setting them all to 1.
WARNING: Problem in step computation; switching to emergency mode.
 182r 3.8725275e+04 2.17e+01 3.63e+20   1.6 2.06e-01  19.7 0.00e+00 0.00e+00R  1
Scaling factors are invalid - setting them all to 1.
Scaling factors are invalid - setting them all to 1.
Scaling factors are invalid - setting them all to 1.
Scaling factors are invalid - setting them all to 1.
Scaling factors are invalid - setting them all to 1.
Scaling factors are invalid - setting them all to 1.
Scaling factors are invalid - setting them all to 1.
Scaling factors are invalid - setting them all to 1.
Scaling factors are invalid - setting them all to 1.
Scaling factors are invalid - setting them all to 1.
Scaling factors are invalid - setting them all to 1.
Scaling factors are invalid - setting them all to 1.
Scaling factors are invalid - setting them all to 1.
Scaling factors are invalid - setting them all to 1.
WARNING: Problem in step computation; switching to emergency mode.
Restoration phase is called at point that is almost feasible,
  with constraint violation 0.000000e+00. Abort.
Restoration phase in the restoration phase failed.

Number of Iterations....: 182

                                   (scaled)                 (unscaled)
Objective...............:   3.8725275196048053e+04    3.8725275196048053e+04
Dual infeasibility......:   3.6324395580127085e+20    3.6324395580127085e+20
Constraint violation....:   2.1652671792455180e+01    2.1652671792455180e+01
Complementarity.........:   4.5064586148899743e+01    4.5064586148899743e+01
Overall NLP error.......:   6.2903241317945140e+15    3.6324395580127085e+20


Number of objective function evaluations             = 677
Number of objective gradient evaluations             = 149
Number of equality constraint evaluations            = 677
Number of inequality constraint evaluations          = 0
Number of equality constraint Jacobian evaluations   = 190
Number of inequality constraint Jacobian evaluations = 0
Number of Lagrangian Hessian evaluations             = 183
Total CPU secs in IPOPT (w/o function evaluations)   =      1.077
Total CPU secs in NLP function evaluations           =      7.928

EXIT: Restoration Failed!
